treewidth/data/NKStarGraph_5_3.gr
p tw 60 120
1 5
1 21
1 36
1 49
2 6
2 22
2 34
2 50
13 7
13 23
13 37
13 48
24 8
24 18
24 39
24 52
35 9
35 19
35 38
35 53
46 10
46 20
46 40
46 51
57 11
57 26
57 31
57 55
58 12
58 25
58 32
58 56
59 14
59 27
59 33
59 54
60 15
60 29
60 42
60 44
3 16
3 28
3 43
3 45
4 17
4 30
4 41
4 47
5 18
5 32
5 45
6 19
6 31
6 47
7 20
7 33
7 44
8 21
8 38
8 51
9 22
9 39
9 53
10 23
10 40
10 52
11 25
11 34
11 54
12 26
12 36
12 56
14 27
14 37
14 55
15 28
15 41
15 48
16 29
16 43
16 49
17 30
17 42
17 50
18 31
18 44
19 32
19 47
20 33
20 45
21 34
21 48
22 36
22 50
23 37
23 49
25 38
25 54
26 39
26 55
27 40
27 56
28 41
28 51
29 42
29 52
30 43
30 53
31 44
32 45
33 47
34 48
36 49
37 50
38 51
39 52
40 53
41 54
42 55
43 56
