treewidth/data/NKStarGraph_5_3.td
c width = 14, time = 13211.830367
s td 24 15 60
b 1 26 36 39 44 45 47 48 49 50 51 52 53 54 57 58
b 2 24 36 39 44 45 47 48 49 50 51 52 53 54 57 58
b 3 9 24 36 39 44 45 47 48 49 50 51 53 54 57 58
b 4 2 9 24 36 44 45 47 48 49 50 51 53 54 57 58
b 5 1 2 9 24 36 44 45 47 48 49 51 53 54 57 58
b 6 1 2 9 18 24 38 44 45 47 48 51 53 54 57 58
b 7 1 2 9 18 19 38 44 45 47 53 57 58
b 8 1 5 18 19 32 45 58
b 9 2 6 18 19 31 44 47 57
b 10 9 19 35 38 53
b 11 1 2 8 11 21 24 25 34 38 48 51 54 57 58
b 12 2 9 22 36 50
b 13 26 36 44 45 47 48 49 50 51 52 53 54 56 57 58
b 14 26 40 42 44 45 47 48 49 50 51 52 53 54 56 57
b 15 41 42 44 45 47 48 49 50 51 52 53 54 56
b 16 28 41 42 44 45 47 48 49 50 51 52 53 56
b 17 16 28 41 42 44 45 47 48 49 50 52 53 56
b 18 3 4 16 17 28 30 41 42 43 45 47 50 53 56
b 19 15 16 28 29 41 42 44 48 52 60
b 20 26 37 40 42 44 45 47 48 49 50 51 52 54 56 57
b 21 26 33 37 40 42 44 45 47 48 49 51 52 54 56 57
b 22 7 10 13 20 23 33 37 40 44 45 46 48 49 51 52
b 23 14 26 27 33 37 40 42 54 55 56 57 59
b 24 12 26 36 56 58
7 8
7 9
7 10
6 7
6 11
5 6
4 5
4 12
3 4
2 3
1 2
17 18
17 19
16 17
15 16
14 15
21 22
21 23
20 21
14 20
13 14
13 24
1 13
